(set-logic QF_BV)
(declare-fun x0 () (_ BitVec 64))
(declare-fun x1 () (_ BitVec 32))
(declare-fun x2 () (_ BitVec 64))
(declare-fun x3 () (_ BitVec 64))
(declare-fun x4 () (_ BitVec 64))
(declare-fun x5 () (_ BitVec 64))
(declare-fun x6 () (_ BitVec 32))
(declare-fun x7 () (_ BitVec 32))
(declare-fun x8 () (_ BitVec 32))
(declare-fun x9 () Bool)
(declare-fun x10 () Bool)
(declare-fun x11 () Bool)
(declare-fun x12 () Bool)
(assert (= x3 ((_ sign_extend 32) x6)))
(assert (= x8 (bvurem (_ bv0 32) x1)))
(assert (= x5 ((_ sign_extend 32) x8)))
(assert (= x4 x5))
(assert (= x2 (bvadd x4 ((_ extract 63 0) (_ bv172 64)))))
(assert (= x0 (bvadd (_ bv0 64) x2)))
(assert (= false (bvult x3 x0)))
(assert x12)
(assert x10)
(assert (= x7 (bvadd ((_ extract 31 0) (_ bv24 64)) (_ bv0 32))))
(assert (= true (bvult x6 x7)))
(assert x11)
(assert x9)
(check-sat)
(exit)
